11 69 36 84 51 3 47 77 74 
62 52 92 87 22 100 20 14 5 93 56 
33 72 30 67 42 63 23 15 40 54 81 1 17 13 66 96 
27 19 98 49 68 41 55 7 
64 
99 44 88 29 38 24 58 46 39 4 10 
61 21 75 94 9 59 82 91 79 6 89 50 80 
90 83 76 
8 2 35 45 37 32 
65 12 73 95 34 43 26 57 60 
71 16 78 86 53 18 31 25 28 85 97 70 48 

